VER
1

OBJSENSE
MIN

VAR
2 2
F 1
L+ 1

INT
2
0
1

CON
3 3
L+ 1
L- 1
L+ 1

PSDCON
1
2

OBJACOORD
1
0 1.000000

ACOORD
3
0 0 1.0
1 1 1.0
2 0 -1.0

BCOORD
3
0 1.0
1 -1.0
2 10.0

HCOORD
4
0 0 0 0 1.000000
0 0 1 1 1.000000
0 1 0 0 10.000000
0 1 1 1 10.000000

DCOORD
1
0 1 0 -1.000000
